# Solution for model r3_t9_m3_3
# Finished Task: 9 / 9
# Makespan: 578.0, Total Distance: 401.0, Total Time: 1.0488
# R O S F
0 0 -1 0.0 0.0
1 1 5 33.0 33.0
2 2 8 43.0 43.0
3 1 9 366.0 390.0
4 1 -1 553.0 578.0
5 1 6 118.0 150.0
6 1 7 190.0 221.0
7 1 3 298.0 326.0
8 2 11 428.0 453.0
9 1 10 399.0 428.0
10 1 4 482.0 511.0
11 2 -1 500.0 532.0
